12 25
1 2 426
1 3 434
1 6 409
2 5 271
2 7 380
2 9 294
3 4 37
3 6 70
3 10 195
3 11 304
4 6 104
4 10 159
4 11 321
5 7 134
5 9 204
5 12 252
6 10 247
6 11 248
7 8 305
7 9 182
7 12 141
8 9 295
8 12 312
9 10 276
9 12 311
